c t wmc
c file mc2023_track2_103.cnf
p cnf 90 270
-35 33 -3 0
-34 -56 -53 0
54 46 6 0
-45 -68 16 0
-44 33 -77 0
56 -68 -19 0
55 -83 -38 0
83 50 81 0
83 63 -5 0
-9 82 8 0
-89 14 83 0
57 10 -31 0
88 -75 28 0
-25 6 -61 0
-26 11 -59 0
75 -90 -62 0
24 -59 26 0
29 56 72 0
-39 73 -54 0
67 78 -19 0
-53 30 32 0
77 26 18 0
36 -9 46 0
63 -90 55 0
-90 -77 82 0
89 82 -11 0
-9 64 -12 0
-29 -80 -26 0
-67 2 -59 0
-18 -1 23 0
-59 8 -38 0
-46 13 -35 0
-11 65 83 0
11 83 -40 0
3 -46 -2 0
-64 46 -67 0
88 64 55 0
-67 -63 73 0
-72 1 7 0
77 9 44 0
-84 64 41 0
29 -14 -37 0
-36 58 -5 0
-65 17 44 0
-49 50 54 0
-22 17 -3 0
-16 31 -14 0
-85 -25 11 0
-75 15 -67 0
-8 -89 48 0
-64 56 -80 0
55 73 -28 0
-87 20 -76 0
13 -26 -54 0
-71 -51 80 0
86 -5 60 0
-44 21 24 0
64 -63 84 0
71 -7 -8 0
-36 -24 -7 0
79 -49 -44 0
-26 56 35 0
-64 66 17 0
-44 51 56 0
-72 -39 10 0
-4 8 -15 0
17 -66 74 0
-36 69 61 0
-15 26 -32 0
82 77 5 0
-41 -77 -87 0
17 64 24 0
56 29 -72 0
66 60 -39 0
-4 -60 -47 0
-45 75 31 0
74 -34 23 0
-66 56 31 0
-32 -14 41 0
23 79 -38 0
22 -35 -39 0
57 6 -53 0
40 -65 -19 0
77 66 35 0
21 36 -70 0
-85 -12 55 0
50 46 -88 0
83 37 -48 0
-73 -5 6 0
-67 81 -10 0
-6 32 7 0
-83 -72 -30 0
59 -60 52 0
57 55 90 0
-55 40 64 0
47 69 -51 0
-84 39 -75 0
-2 82 -36 0
45 -80 -11 0
-85 86 21 0
55 -7 59 0
66 18 -1 0
81 17 50 0
-55 -70 -50 0
-59 69 7 0
88 17 -47 0
12 3 55 0
35 -79 56 0
-77 46 -65 0
20 44 -14 0
56 -3 -88 0
-86 -29 -44 0
-58 22 -71 0
-30 8 -2 0
-36 22 27 0
43 55 -46 0
-25 82 -62 0
-2 -43 -54 0
-44 73 29 0
38 81 -45 0
43 -19 80 0
82 -60 -12 0
40 -84 -45 0
-35 -7 -5 0
-44 -53 16 0
-23 43 11 0
-34 -18 -27 0
-40 75 -65 0
10 75 83 0
-63 39 -65 0
-20 -80 37 0
6 -52 66 0
78 -17 -39 0
84 -75 -40 0
-36 52 41 0
71 -12 -11 0
-59 12 -13 0
-39 42 12 0
-38 12 -68 0
-18 82 29 0
-47 81 -73 0
-5 -81 -87 0
-29 52 -84 0
19 54 6 0
-11 73 6 0
32 -28 44 0
4 90 52 0
-4 -67 -11 0
49 12 -60 0
68 87 82 0
-23 -35 -90 0
-13 -44 -70 0
-2 -72 -25 0
-7 66 -20 0
-43 89 -30 0
32 -19 20 0
-14 -17 -58 0
-69 33 10 0
20 -49 77 0
-28 -36 30 0
-76 -45 -29 0
57 72 -54 0
-2 -48 16 0
-29 -62 82 0
77 -85 23 0
-63 21 1 0
-45 -9 84 0
40 -70 46 0
40 -58 61 0
-48 55 -60 0
-8 -20 -3 0
-44 76 -61 0
61 17 24 0
-51 75 -19 0
-85 3 -69 0
-15 19 25 0
25 -1 -81 0
-8 30 68 0
-8 -19 53 0
-6 72 -51 0
-64 -41 14 0
3 24 -6 0
-36 30 22 0
-7 33 8 0
56 58 -63 0
53 -71 73 0
57 -76 21 0
-11 66 51 0
8 25 -23 0
-21 -75 -78 0
-70 -47 58 0
33 -7 64 0
-89 66 -50 0
8 66 -55 0
-29 11 69 0
-65 36 -75 0
43 -51 -86 0
-41 -66 -22 0
-56 87 81 0
-85 11 15 0
66 -54 70 0
57 32 71 0
17 66 28 0
25 90 76 0
70 57 -65 0
56 35 -72 0
-22 49 -29 0
-43 -19 -59 0
-36 50 -26 0
-25 70 -63 0
89 -60 77 0
-71 -47 -81 0
20 25 79 0
-65 -53 -77 0
-41 44 -36 0
-80 58 -72 0
9 90 82 0
-4 -18 82 0
-84 -62 66 0
-86 -33 -68 0
60 10 -63 0
-72 -86 54 0
-15 7 66 0
10 23 -19 0
-22 72 36 0
-28 -89 -20 0
87 69 86 0
-5 30 53 0
31 -11 89 0
-72 -48 -53 0
-66 42 4 0
-3 -18 -53 0
76 43 67 0
87 -29 -24 0
-30 -46 33 0
-17 -72 -50 0
20 -26 5 0
60 -47 -7 0
-26 -39 -37 0
-21 83 -28 0
-12 81 67 0
55 -61 35 0
-61 -49 77 0
65 -1 -84 0
77 -21 -32 0
-67 -51 -57 0
-71 -64 82 0
-53 -85 -62 0
62 56 -30 0
65 61 -70 0
17 24 68 0
68 17 -41 0
-17 -70 -40 0
-74 3 64 0
86 80 -90 0
-76 9 74 0
-15 -48 -87 0
-54 -36 80 0
45 41 -63 0
-41 -52 82 0
17 -29 59 0
40 33 21 0
18 13 -70 0
81 -89 43 0
-59 -68 -28 0
37 -22 -76 0
21 51 -36 0
-24 -15 70 0
-90 -10 74 0
47 -84 -5 0
c p weight 47 0.59212419 0
c p weight -47 0.40787581 0
c p weight 4 0.55098761 0
c p weight -4 0.44901239 0
c p weight 1 1 0
c p weight -1 1 0
c p weight 2 1 0
c p weight -2 1 0
c p weight 3 1 0
c p weight -3 1 0
c p weight 5 1 0
c p weight -5 1 0
c p weight 6 1 0
c p weight -6 1 0
c p weight 7 1 0
c p weight -7 1 0
c p weight 8 1 0
c p weight -8 1 0
c p weight 9 1 0
c p weight -9 1 0
c p weight 10 1 0
c p weight -10 1 0
c p weight 11 1 0
c p weight -11 1 0
c p weight 12 1 0
c p weight -12 1 0
c p weight 13 1 0
c p weight -13 1 0
c p weight 14 1 0
c p weight -14 1 0
c p weight 15 1 0
c p weight -15 1 0
c p weight 16 1 0
c p weight -16 1 0
c p weight 17 1 0
c p weight -17 1 0
c p weight 18 1 0
c p weight -18 1 0
c p weight 19 1 0
c p weight -19 1 0
c p weight 20 1 0
c p weight -20 1 0
c p weight 21 1 0
c p weight -21 1 0
c p weight 22 1 0
c p weight -22 1 0
c p weight 23 1 0
c p weight -23 1 0
c p weight 24 1 0
c p weight -24 1 0
c p weight 25 1 0
c p weight -25 1 0
c p weight 26 1 0
c p weight -26 1 0
c p weight 27 1 0
c p weight -27 1 0
c p weight 28 1 0
c p weight -28 1 0
c p weight 29 1 0
c p weight -29 1 0
c p weight 30 1 0
c p weight -30 1 0
c p weight 31 1 0
c p weight -31 1 0
c p weight 32 1 0
c p weight -32 1 0
c p weight 33 1 0
c p weight -33 1 0
c p weight 34 1 0
c p weight -34 1 0
c p weight 35 1 0
c p weight -35 1 0
c p weight 36 1 0
c p weight -36 1 0
c p weight 37 1 0
c p weight -37 1 0
c p weight 38 1 0
c p weight -38 1 0
c p weight 39 1 0
c p weight -39 1 0
c p weight 40 1 0
c p weight -40 1 0
c p weight 41 1 0
c p weight -41 1 0
c p weight 42 1 0
c p weight -42 1 0
c p weight 43 1 0
c p weight -43 1 0
c p weight 44 1 0
c p weight -44 1 0
c p weight 45 1 0
c p weight -45 1 0
c p weight 46 1 0
c p weight -46 1 0
c p weight 48 1 0
c p weight -48 1 0
c p weight 49 1 0
c p weight -49 1 0
c p weight 50 1 0
c p weight -50 1 0
c p weight 51 1 0
c p weight -51 1 0
c p weight 52 1 0
c p weight -52 1 0
c p weight 53 1 0
c p weight -53 1 0
c p weight 54 1 0
c p weight -54 1 0
c p weight 55 1 0
c p weight -55 1 0
c p weight 56 1 0
c p weight -56 1 0
c p weight 57 1 0
c p weight -57 1 0
c p weight 58 1 0
c p weight -58 1 0
c p weight 59 1 0
c p weight -59 1 0
c p weight 60 1 0
c p weight -60 1 0
c p weight 61 1 0
c p weight -61 1 0
c p weight 62 1 0
c p weight -62 1 0
c p weight 63 1 0
c p weight -63 1 0
c p weight 64 1 0
c p weight -64 1 0
c p weight 65 1 0
c p weight -65 1 0
c p weight 66 1 0
c p weight -66 1 0
c p weight 67 1 0
c p weight -67 1 0
c p weight 68 1 0
c p weight -68 1 0
c p weight 69 1 0
c p weight -69 1 0
c p weight 70 1 0
c p weight -70 1 0
c p weight 71 1 0
c p weight -71 1 0
c p weight 72 1 0
c p weight -72 1 0
c p weight 73 1 0
c p weight -73 1 0
c p weight 74 1 0
c p weight -74 1 0
c p weight 75 1 0
c p weight -75 1 0
c p weight 76 1 0
c p weight -76 1 0
c p weight 77 1 0
c p weight -77 1 0
c p weight 78 1 0
c p weight -78 1 0
c p weight 79 1 0
c p weight -79 1 0
c p weight 80 1 0
c p weight -80 1 0
c p weight 81 1 0
c p weight -81 1 0
c p weight 82 1 0
c p weight -82 1 0
c p weight 83 1 0
c p weight -83 1 0
c p weight 84 1 0
c p weight -84 1 0
c p weight 85 1 0
c p weight -85 1 0
c p weight 86 1 0
c p weight -86 1 0
c p weight 87 1 0
c p weight -87 1 0
c p weight 88 1 0
c p weight -88 1 0
c p weight 89 1 0
c p weight -89 1 0
c p weight 90 1 0
c p weight -90 1 0
